NAME: PointSet_Angle_50_2
TYPE: TSP
COMMENT: Points chosen discrete uniformly at random out of ${0, \ldots, 500}^2$.
DIMENSION: 50
EDGE_WEIGHT_TYPE: EUC_2D
NODE_COORD_SECTION
1 368 239
2 350 475
3 94 444
4 53 372
5 298 195
6 40 24
7 118 500
8 373 118
9 485 469
10 284 94
11 478 467
12 447 424
13 390 481
14 473 95
15 465 254
16 168 332
17 239 18
18 52 334
19 208 105
20 452 5
21 47 492
22 277 165
23 491 149
24 29 222
25 117 314
26 62 341
27 26 8
28 11 416
29 489 230
30 258 453
31 484 172
32 31 470
33 437 330
34 303 145
35 182 0
36 397 229
37 492 173
38 140 228
39 323 170
40 450 186
41 230 11
42 27 256
43 19 38
44 418 255
45 14 422
46 207 245
47 94 485
48 214 277
49 315 263
50 422 497
EOF
